
--- Job new6.gms Start 01/06/22 12:47:28 37.1.0 r07954d5 WEX-WEI x86 64bit/MS Windows
--- Applying:
    C:\GAMS\37\gmsprmNT.txt
--- GAMS Parameters defined
    Input "C:\Users\semih\Desktop\GAMS CALISMA\ILKLER\6\Kendi_Cozumlerim\new6.gms"
    PageSize 0
    ScrDir "C:\Users\semih\Desktop\GAMS CALISMA\ILKLER\6\Kendi_Cozumlerim\225e\"
    SysDir C:\GAMS\37\
    LogOption 3
    ErrMsg 1
    ErrorLog 99
    IDE 1
    LstTitleLeftAligned 1
Licensee: GAMS Community License for Mehmet Semih BabacanG210511|0002AO-GEN
          Yildiz Technical University                                CL1316
          C:\Users\semih\Documents\GAMS\gamslice.txt
          Mehmet Semih Babacan, l6918040@std.yildiz.edu.tr                 
          Community license for demonstration and instructional purposes only
Processor information: 1 socket(s), 4 core(s), and 8 thread(s) available
GAMS 37.1.0   Copyright (C) 1987-2021 GAMS Development. All rights reserved
--- Starting compilation
--- new6.gms(156) 3 Mb
--- Starting execution: elapsed 0:00:00.016
--- new6.gms(115) 4 Mb
--- Generating MIP model buraktez
--- new6.gms(155) 4 Mb
---   164 rows  143 columns  915 non-zeroes
---   121 discrete-columns
--- Executing CPLEX (Solvelink=2): elapsed 0:00:00.016

IBM ILOG CPLEX   37.1.0 r07954d5 Released Nov 11, 2021 WEI x86 64bit/MS Window

--- *** This solver runs with a community license. No commercial use.
--- GMO setup time: 0.00s
--- Space for names approximately 0.01 Mb
--- Use option 'names no' to turn use of names off
--- GMO memory 0.54 Mb (peak 0.54 Mb)
--- Dictionary memory 0.00 Mb
--- Cplex 20.1.0.1 link memory 0.00 Mb (peak 0.03 Mb)
--- Starting Cplex

Version identifier: 20.1.0.1 | 2021-04-07 | 3a818710c
CPXPARAM_Advance                                 0
CPXPARAM_Threads                                 1
CPXPARAM_MIP_Display                             4
CPXPARAM_MIP_Pool_Capacity                       0
CPXPARAM_MIP_Tolerances_AbsMIPGap                0
Generic callback                                 0x50
Tried aggregator 1 time.
MIP Presolve eliminated 52 rows and 34 columns.
MIP Presolve modified 4 coefficients.
Reduced MIP has 111 rows, 109 columns, and 546 nonzeros.
Reduced MIP has 99 binaries, 0 generals, 0 SOSs, and 0 indicators.
Presolve time = 0.00 sec. (0.33 ticks)
Found incumbent of value 5294.894700 after 0.00 sec. (0.86 ticks)
Probing fixed 6 vars, tightened 0 bounds.
Probing time = 0.00 sec. (0.09 ticks)
Tried aggregator 1 time.
Detecting symmetries...
MIP Presolve eliminated 0 rows and 6 columns.
Reduced MIP has 111 rows, 103 columns, and 522 nonzeros.
Reduced MIP has 93 binaries, 0 generals, 0 SOSs, and 0 indicators.
Presolve time = 0.00 sec. (0.30 ticks)
Probing time = 0.00 sec. (0.08 ticks)
Clique table members: 81.
MIP emphasis: balance optimality and feasibility.
MIP search method: dynamic search.
Parallel mode: none, using 1 thread.
Tried aggregator 1 time.
No LP presolve or aggregator reductions.
Presolve time = 0.00 sec. (0.06 ticks)

Iteration log . . .
Iteration:     1   Dual objective     =             0.227700
Root relaxation solution time = 0.00 sec. (0.24 ticks)

        Nodes                                         Cuts/
   Node  Left     Objective  IInf  Best Integer    Best Bound    ItCnt     Gap

*     0+    0                         5294.8947        0.0000           100.00%
Found incumbent of value 5294.894700 after 0.02 sec. (1.79 ticks)
      0     0       10.0819    14     5294.8947       10.0819       33   99.81%
      0     0       10.9037    18     5294.8947      Cuts: 28       48   99.79%
      0     0       11.5069    12     5294.8947      Cuts: 49       61   99.78%
      0     0       11.7275    21     5294.8947      Cuts: 15       77   99.78%
      0     0       12.3673    15     5294.8947      Cuts: 28       94   99.77%
      0     0       13.0792    15     5294.8947      Cuts: 37      123   99.75%
Detecting symmetries...
      0     0       13.6859    21     5294.8947      Cuts: 32      141   99.74%
*     0+    0                         2121.9591       13.6859            99.36%
Found incumbent of value 2121.959100 after 0.03 sec. (8.32 ticks)
      0     0       13.9795    23     2121.9591      Cuts: 16      157   99.34%
      0     0       14.4529    17     2121.9591      Cuts: 11      174   99.32%
      0     0       66.4963    36     2121.9591      Cuts: 11      184   96.87%
      0     0      119.4630    36     2121.9591      Cuts: 14      208   94.37%
      0     0      538.2030    15     2121.9591      Cuts: 48      236   74.64%
      0     0      538.2224    11     2121.9591       Cuts: 5      242   74.64%
      0     0      538.2376    19     2121.9591      Cuts: 12      249   74.63%
*     0+    0                         2119.3518      538.2376            74.60%
Found incumbent of value 2119.351800 after 0.05 sec. (15.77 ticks)
Detecting symmetries...
      0     2      538.2376    19     2119.3518      538.2377      249   74.60%
Elapsed time = 0.05 sec. (16.64 ticks, tree = 0.01 MB)
*    10+   10                         2116.8507     1062.9224            49.79%
Found incumbent of value 2116.850700 after 0.05 sec. (18.02 ticks)
*    34    22      integral     0     2115.8418     1062.9479      643   49.76%
                                                  Impl Bds: 2                  
Found incumbent of value 2115.841800 after 0.05 sec. (20.87 ticks)
*   213   136      integral     0     2115.8346     1063.2855     1617   49.75%
                                                 Impl Bds: 10                  
Found incumbent of value 2115.834600 after 0.09 sec. (40.11 ticks)
*   440+  266                         2115.1155     1063.4403            49.72%
                                                     Cuts: 13                  
Found incumbent of value 2115.115500 after 0.14 sec. (64.24 ticks)

Performing restart 1

Repeating presolve.
Tried aggregator 1 time.
MIP Presolve modified 28 coefficients.
Reduced MIP has 111 rows, 103 columns, and 510 nonzeros.
Reduced MIP has 93 binaries, 0 generals, 0 SOSs, and 0 indicators.
Presolve time = 0.00 sec. (0.29 ticks)
Tried aggregator 1 time.
Reduced MIP has 111 rows, 103 columns, and 510 nonzeros.
Reduced MIP has 93 binaries, 0 generals, 0 SOSs, and 0 indicators.
Presolve time = 0.00 sec. (0.30 ticks)
Represolve time = 0.00 sec. (1.28 ticks)
Tried aggregator 1 time.
LP Presolve eliminated 7 rows and 0 columns.
Reduced LP has 168 rows, 103 columns, and 852 nonzeros.
Presolve time = 0.00 sec. (0.12 ticks)

Iteration log . . .
Iteration:     1   Dual objective     =             1.325700
Iteration:    62   Dual objective     =           538.034650
Initializing dual steep norms . . .
   1078     0      538.3749    21     2115.1155      Cuts: 31     7956   49.69%
   1078     0     1062.9009    11     2115.1155      Cuts: 22     7972   49.69%
   1078     0     1063.0283    16     2115.1155      Cuts: 20     7985   49.69%
   1078     0     1063.1100    15     2115.1155      Cuts: 34     7993   49.69%
   1078     0     1063.1654    19     2115.1155      Cuts: 23     8009   49.69%
   1078     0     1063.1661    19     2115.1155      Cuts: 17     8014   49.69%
   1474   262     1380.8054    16     2115.1155     1064.0250    10576   49.69%
                                                    Covers: 2                  
   2866   917     1065.1114     8     2115.1155     1064.7424    23335   49.66%
                                                      Cuts: 3                  
   4187  1359     1066.8570    12     2115.1155     1065.4875    36734   49.63%
                                                      Cuts: 2                  
   5412  1564     1066.8428     7     2115.1155     1066.0568    50934   49.60%
                                                  Impl Bds: 1                  
   6653  1596     1067.2940    18     2115.1155     1066.6131    64950   49.57%
                                                      Cuts: 4                  
   7926  1547        cutoff           2115.1155     1067.3178    79830   49.54%
                                                   Cliques: 2                  
   9224  1203     1422.6676    15     2115.1155     1068.4914    95404   49.48%
  10665   549        cutoff           2115.1155     1070.8237   110608   49.37%

Clique cuts applied:  6
Cover cuts applied:  5
Implied bound cuts applied:  3
Flow cuts applied:  2
Mixed integer rounding cuts applied:  9
Zero-half cuts applied:  16
Lift and project cuts applied:  1

Root node processing (before b&c):
  Real time             =    0.05 sec. (16.64 ticks)
Sequential b&c:
  Real time             =    3.38 sec. (1989.77 ticks)
                          ------------
Total (root+branch&cut) =    3.42 sec. (2006.41 ticks)

--- MIP status (102): integer optimal, tolerance.
--- Cplex Time: 3.42sec (det. 2006.41 ticks)

--- Fixing integer variables and solving final LP...

Version identifier: 20.1.0.1 | 2021-04-07 | 3a818710c
CPXPARAM_Advance                                 2
CPXPARAM_Threads                                 1
CPXPARAM_MIP_Display                             4
CPXPARAM_MIP_Pool_Capacity                       0
CPXPARAM_MIP_Tolerances_AbsMIPGap                0
Tried aggregator 1 time.
LP Presolve eliminated 141 rows and 133 columns.
Aggregator did 4 substitutions.
Reduced LP has 18 rows, 6 columns, and 36 nonzeros.
Presolve time = 0.00 sec. (0.13 ticks)
Initializing dual steep norms . . .

Iteration log . . .
Iteration:     1   Dual objective     =          2115.115500

--- Fixed MIP status (1): optimal.
--- Cplex Time: 0.00sec (det. 0.21 ticks)


Solution satisfies tolerances
MIP Solution:         2115.115500    (115202 iterations, 11353 nodes)
Final Solve:          2115.115500    (2 iterations)

Best possible:        2114.983354
Absolute gap:            0.132146
Relative gap:            0.000062

--- Reading solution for model buraktez
*** Status: Normal completion
--- Job new6.gms Stop 01/06/22 12:47:31 elapsed 0:00:03.521
